12
5
4
10
9
13
10
5
10
11
14
3
7
15
10
1
15
6
3
2
16
11
12
13
5
4
0
10
4
13
13
13
14
7
11
2
7
6
12
13
1
12
0
14
15
9
6
10
15
16
5
11
10
11
8
4
13
6
2
15
7
10
14
8
6
7
1
8
16
9
3
4
4
14
11
14
2
1
7
10
8
0
9
16
0
15
5
15
9
12
3
5
11
0
3
16
5
4
3
0
7
4
8
1
16
3
11
1
12
6
2
12
15
1
16
14
1
12
2
14
9
13
2
7
16